
Gurobi 9.0.1 (linux64) logging started Thu Apr 30 06:21:38 2020

Gurobi Optimizer version 9.0.1 build v9.0.1rc0 (linux64)
Optimize a model with 2138 rows, 2120 columns and 19920 nonzeros
Model fingerprint: 0x824d1186
Variable types: 0 continuous, 2120 integer (2106 binary)
Coefficient statistics:
  Matrix range     [1e+00, 7e+00]
  Objective range  [2e+00, 1e+02]
  Bounds range     [1e+00, 1e+00]
  RHS range        [1e+00, 1e+00]

User MIP start produced solution with objective 571 (0.01s)
Loaded user MIP start with objective 571

Presolve removed 800 rows and 816 columns
Presolve time: 0.14s
Presolved: 1338 rows, 1304 columns, 14312 nonzeros
Variable types: 0 continuous, 1304 integer (1292 binary)

Root relaxation: objective 3.965081e+02, 964 iterations, 0.09 seconds

    Nodes    |    Current Node    |     Objective Bounds      |     Work
 Expl Unexpl |  Obj  Depth IntInf | Incumbent    BestBd   Gap | It/Node Time

     0     0  396.50812    0  368  571.00000  396.50812  30.6%     -    0s
     0     0  427.76779    0  368  571.00000  427.76779  25.1%     -    0s
     0     0  428.34605    0  362  571.00000  428.34605  25.0%     -    0s
     0     0  428.79699    0  352  571.00000  428.79699  24.9%     -    0s
     0     0  428.87312    0  361  571.00000  428.87312  24.9%     -    0s
     0     0  428.88130    0  367  571.00000  428.88130  24.9%     -    0s
     0     0  428.88132    0  369  571.00000  428.88132  24.9%     -    0s
     0     0  454.94027    0  387  571.00000  454.94027  20.3%     -    1s
     0     0  454.99103    0  390  571.00000  454.99103  20.3%     -    1s
     0     0  454.99349    0  390  571.00000  454.99349  20.3%     -    1s
     0     0  469.32783    0  392  571.00000  469.32783  17.8%     -    1s
     0     0  469.67375    0  384  571.00000  469.67375  17.7%     -    1s
     0     0  469.67408    0  389  571.00000  469.67408  17.7%     -    1s
     0     0  474.55730    0  393  571.00000  474.55730  16.9%     -    2s
     0     0  475.22248    0  411  571.00000  475.22248  16.8%     -    2s
     0     0  475.31387    0  407  571.00000  475.31387  16.8%     -    2s
     0     0  475.33621    0  408  571.00000  475.33621  16.8%     -    2s
     0     0  477.53236    0  398  571.00000  477.53236  16.4%     -    2s
     0     0  477.80960    0  402  571.00000  477.80960  16.3%     -    2s
     0     0  477.83828    0  404  571.00000  477.83828  16.3%     -    2s
     0     0  478.67532    0  389  571.00000  478.67532  16.2%     -    3s
     0     0  478.91529    0  403  571.00000  478.91529  16.1%     -    3s
     0     0  478.93341    0  407  571.00000  478.93341  16.1%     -    3s
     0     0  479.69793    0  412  571.00000  479.69793  16.0%     -    3s
     0     0  480.08482    0  416  571.00000  480.08482  15.9%     -    3s
     0     0  480.08660    0  418  571.00000  480.08660  15.9%     -    3s
     0     0  480.75311    0  423  571.00000  480.75311  15.8%     -    3s
     0     0  480.88226    0  418  571.00000  480.88226  15.8%     -    3s
     0     0  480.93183    0  421  571.00000  480.93183  15.8%     -    3s
     0     0  481.92213    0  397  571.00000  481.92213  15.6%     -    3s
     0     0  482.16584    0  399  571.00000  482.16584  15.6%     -    3s
     0     0  482.20392    0  411  571.00000  482.20392  15.6%     -    3s
     0     0  482.41880    0  406  571.00000  482.41880  15.5%     -    4s
     0     0  482.41880    0  403  571.00000  482.41880  15.5%     -    4s
     0     2  482.43940    0  402  571.00000  482.43940  15.5%     -    4s
     4     6  495.99282    2  344  571.00000  484.93969  15.1%   490    5s
    66    58  531.69266   13  205  571.00000  497.06467  12.9%   442   10s
   191   148  548.96844   15  166  571.00000  498.89817  12.6%   315   15s
   336   230     cutoff   21       571.00000  503.07288  11.9%   264   20s
   472   284  555.84707    8  249  571.00000  509.93468  10.7%   244   25s
   522   297  553.94074   23  434  571.00000  511.35888  10.4%   230   30s
   535   307  568.47446   27  385  571.00000  511.35888  10.4%   237   35s
   548   318  518.49682   23  379  571.00000  511.35888  10.4%   244   40s
   557   324  526.64145   27  374  571.00000  511.35888  10.4%   252   45s
   638   339  541.73026   30  268  571.00000  511.35888  10.4%   258   50s
   750   360  557.69940   59  140  571.00000  511.35888  10.4%   260   55s
   878   366  521.13479   38  287  571.00000  511.35888  10.4%   254   60s
  1017   362  563.27044   33  131  571.00000  511.35888  10.4%   243   65s
H 1034   353                     570.0000000  511.35888  10.3%   239   65s
H 1040   326                     568.0000000  511.35888  10.0%   238   65s
H 1067   307                     567.0000000  511.35888  9.81%   236   66s
H 1088   279                     565.0000000  511.35888  9.49%   233   66s
  1217   273     cutoff   45       565.00000  515.99972  8.67%   224   70s
  1374   274  526.24831   25  372  565.00000  518.49682  8.23%   215   75s
  1504   309  546.07794   39  270  565.00000  519.41746  8.07%   214   80s
  1720   330  554.85572   39  273  565.00000  521.25184  7.74%   204   85s
  1886   357  550.69945   32  282  565.00000  523.47871  7.35%   202   91s
  2040   367     cutoff   39       565.00000  524.65770  7.14%   197   95s
  2252   386  560.30952   33  115  565.00000  526.90628  6.74%   194  100s
  2475   396  542.49290   52  249  565.00000  528.87387  6.39%   191  105s
  2687   400  553.43356   43  205  565.00000  531.46884  5.93%   187  110s
  2866   402  538.26414   43  188  565.00000  533.10401  5.65%   183  115s
  3075   415  556.87587   35  309  565.00000  535.07710  5.30%   181  120s
  3332   404  553.14004   52  192  565.00000  537.61139  4.85%   177  125s
  3576   377     cutoff   39       565.00000  540.98982  4.25%   175  130s
  3840   346  556.14312   33  243  565.00000  544.69353  3.59%   172  135s
  4079   308     cutoff   41       565.00000  546.30077  3.31%   168  140s
  4411   211     cutoff   41       565.00000  552.22216  2.26%   163  145s

Cutting planes:
  Gomory: 6
  MIR: 22
  StrongCG: 1
  Flow cover: 44
  Inf proof: 24
  Zero half: 65
  RLT: 269

Explored 4860 nodes (745702 simplex iterations) in 148.33 seconds
Thread count was 1 (of 40 available processors)

Solution count 5: 565 567 568 ... 571

Optimal solution found (tolerance 1.00e-04)
Best objective 5.650000000000e+02, best bound 5.650000000000e+02, gap 0.0000%

User-callback calls 25165, time in user-callback 0.03 sec
